c FILE: K5.col
c K5 is a complete graph with 5 vertices where each vertex is connected
c to every other vertex, requiring 5 colors for proper vertex coloring.
c 5 vertices, 10 edges, 5 colors
p edge 5 10
n 1 0
e 1 2
e 1 3
e 1 4
e 1 5
e 2 3
e 2 4
e 2 5
e 3 4
e 3 5
e 4 5
x colors 5